
List of user-set options:

                                    Name   Value                used
                           compl_inf_tol = 1                     yes
                         constr_viol_tol = 1                     yes
                            dual_inf_tol = 1000                  yes
                           linear_solver = ma97                  yes
                              ma86_small = 1e-30                  no
                                  ma86_u = 0.0001                 no
                              ma97_order = best                  yes
                              ma97_small = 1e-30                 yes
                            ma97_switch1 = at_start              yes
                            ma97_switch2 = od_hd_reuse           yes
                                  ma97_u = 1e-06                 yes
                               ma97_umax = 0.5                   yes
                                max_iter = 2000                  yes
                    max_refinement_steps = 20                    yes
                    min_refinement_steps = 5                     yes
                                 mu_init = 1e-06                 yes
           mu_superlinear_decrease_power = 1.25                  yes
                   nlp_scaling_min_value = 1e-08                 yes
                        option_file_name = Preset_Case:_134_NCP.opt  yes
                             output_file = ./tmp/Preset_Case:_134_NCP.output  yes
                      print_user_options = yes                   yes
        required_infeasibility_reduction = 1                      no
                                     tol = 1e-08                 yes
                   warm_start_bound_frac = 1e-20                 yes
                   warm_start_bound_push = 1e-20                 yes
                   warm_start_init_point = yes                   yes
              warm_start_mult_bound_push = 1e-20                 yes
                warm_start_mult_init_max = 1e+40                 yes
             warm_start_slack_bound_frac = 1e-20                 yes
             warm_start_slack_bound_push = 1e-20                 yes

******************************************************************************
This program contains Ipopt, a library for large-scale nonlinear optimization.
 Ipopt is released as open source code under the Eclipse Public License (EPL).
         For more information visit http://projects.coin-or.org/Ipopt
******************************************************************************

This is Ipopt version 3.12.10, running with linear solver ma97.

Number of nonzeros in equality constraint Jacobian...:   117140
Number of nonzeros in inequality constraint Jacobian.:      213
Number of nonzeros in Lagrangian Hessian.............:    47462

Total number of variables............................:    29971
                     variables with only lower bounds:    11312
                variables with lower and upper bounds:    15132
                     variables with only upper bounds:        0
Total number of equality constraints.................:    29864
Total number of inequality constraints...............:       25
        inequality constraints with only lower bounds:        4
   inequality constraints with lower and upper bounds:        0
        inequality constraints with only upper bounds:       21

iter    objective    inf_pr   inf_du lg(mu)  ||d||  lg(rg) alpha_du alpha_pr  ls
   0 -2.7532882e-02 1.43e-01 3.37e+01  -6.0 0.00e+00    -  0.00e+00 0.00e+00   0
In iteration 0, 4 Slacks too small, adjusting variable bounds
   1 -2.7532882e-02 1.43e-01 4.55e+01  -6.0 2.66e+04   0.0 2.08e-08 1.29e-13f  1
In iteration 1, 1 Slack too small, adjusting variable bound
   2 -2.7532882e-02 1.43e-01 2.22e+02  -6.0 7.50e+02  -0.5 3.65e-07 2.31e-11f  1
   3 -2.7532891e-02 1.43e-01 9.03e+02  -6.0 1.52e+03  -1.0 2.27e-06 5.37e-07f  1
   4 -2.7533030e-02 1.43e-01 5.99e+01  -6.0 1.52e+03  -1.4 1.30e-06 8.63e-06f  1
   5 -2.7533674e-02 1.43e-01 1.55e+03  -6.0 1.52e+03  -1.9 2.46e-06 3.66e-05f  1
   6 -2.7548621e-02 1.43e-01 1.59e+04  -6.0 1.52e+03  -2.4 3.40e-05 1.02e-03f  1
   7 -2.7549452e-02 1.43e-01 1.75e+04  -6.0 1.50e+03  -2.0 1.09e-05 5.22e-05h  1
   8 -2.7541883e-02 1.40e-01 1.87e+04  -6.0 1.26e+03  -2.4 7.78e-06 1.57e-04f  1
   9 -2.7540886e-02 1.40e-01 1.78e+04  -6.0 1.31e+03  -2.0 9.34e-05 6.18e-05h  1
iter    objective    inf_pr   inf_du lg(mu)  ||d||  lg(rg) alpha_du alpha_pr  ls
  10 -2.7517275e-02 1.35e-01 1.87e+04  -6.0 1.22e+03  -2.5 4.57e-05 2.33e-04f  2
  11 -2.7512079e-02 1.32e-01 2.37e+04  -6.0 1.27e+03  -2.1 6.01e-05 2.86e-04h  1
  12 -2.7510710e-02 1.31e-01 5.19e+03  -6.0 1.25e+03  -1.6 3.98e-04 8.64e-05f  2
  13 -2.7497436e-02 1.26e-01 1.38e+04  -6.0 1.22e+03  -2.1 9.07e-05 5.85e-04h  2
  14 -2.7491030e-02 1.26e-01 5.23e+04  -6.0 1.19e+03  -1.7 1.84e-03 4.49e-04h  2
  15 -2.7478292e-02 1.26e-01 8.01e+04  -6.0 1.14e+03  -2.2 2.98e-03 7.23e-04h  2
  16 -2.7476326e-02 1.25e-01 2.99e+05  -6.0 1.11e+03  -1.7 6.18e-03 1.61e-04h  4
  17 -2.7460468e-02 1.25e-01 3.55e+05  -6.0 1.08e+03  -2.2 7.29e-03 1.09e-03h  1
  18r-2.7460468e-02 1.25e-01 1.00e+03  -0.8 0.00e+00  -1.8 0.00e+00 1.00e-08R  2
  19r-2.7476746e-02 1.25e-01 1.42e+03  -0.8 2.16e+04    -  9.97e-07 2.89e-07f  1
iter    objective    inf_pr   inf_du lg(mu)  ||d||  lg(rg) alpha_du alpha_pr  ls
  20r-2.7476746e-02 1.25e-01 9.99e+02  -0.8 0.00e+00    -  0.00e+00 5.60e-08R  2
  21r-2.7478951e-02 1.25e-01 9.99e+02  -0.8 9.43e+03    -  1.97e-06 1.63e-07f  1
  22 -2.7479102e-02 1.25e-01 4.23e+02  -6.0 2.35e+02    -  9.89e-03 2.33e-05h  1
  23 -2.7479797e-02 1.25e-01 8.36e+04  -6.0 1.13e+03    -  6.10e-03 3.40e-05h  1
  24 -2.7528562e-02 1.25e-01 8.26e+04  -6.0 1.20e+03    -  2.72e-03 2.89e-03h  1
  25 -2.7741152e-02 1.23e-01 7.02e+04  -6.0 1.18e+03    -  8.84e-03 1.23e-02h  1
  26 -2.7788545e-02 1.23e-01 3.31e+05  -6.0 1.03e+03    -  1.95e-02 4.53e-03h  1
  27 -2.7892439e-02 1.21e-01 6.29e+05  -6.0 9.78e+02    -  2.99e-02 1.65e-02h  1
  28 -2.7945191e-02 1.20e-01 1.25e+06  -6.0 8.14e+02    -  4.00e-02 9.79e-03h  1
  29 -2.8238888e-02 1.31e-01 1.30e+06  -6.0 7.43e+02    -  5.51e-02 4.93e-02h  1
iter    objective    inf_pr   inf_du lg(mu)  ||d||  lg(rg) alpha_du alpha_pr  ls
  30r-2.8238888e-02 1.31e-01 1.00e+03  -0.9 0.00e+00    -  0.00e+00 2.62e-07R  4
  31r-2.8241609e-02 1.31e-01 1.00e+03  -0.9 3.20e+03    -  1.48e-05 1.07e-06f  1
  32r-2.8241609e-02 1.31e-01 9.99e+02  -0.9 0.00e+00    -  0.00e+00 4.14e-07R  4
  33r-2.8242709e-02 1.31e-01 1.20e+03  -0.9 6.54e+03    -  4.66e-06 1.08e-07f  1
  34 -2.8242827e-02 1.31e-01 1.46e+06  -6.0 2.06e+02    -  1.59e-02 1.71e-05h  1
  35 -2.8246440e-02 1.31e-01 4.05e+07  -6.0 2.57e+02    -  1.82e-05 5.04e-04h  1
  36 -2.8250326e-02 1.31e-01 4.05e+07  -6.0 5.36e+02    -  5.30e-02 5.48e-04h  1
  37 -2.8253884e-02 1.31e-01 4.05e+07  -6.0 5.39e+02    -  1.08e-03 5.35e-04h  1
  38 -2.8443020e-02 1.39e-01 3.87e+07  -6.0 5.47e+02    -  1.23e-04 4.28e-02h  1
  39 -2.8443981e-02 1.39e-01 3.87e+07  -6.0 4.67e+02    -  1.03e-01 2.09e-04h  2
iter    objective    inf_pr   inf_du lg(mu)  ||d||  lg(rg) alpha_du alpha_pr  ls
  40 -2.8485213e-02 1.40e-01 3.84e+07  -6.0 4.57e+02    -  1.00e-03 9.35e-03h  4
  41 -2.8523548e-02 1.41e-01 3.80e+07  -6.0 4.46e+02    -  9.84e-02 8.47e-03h  4
  42 -2.8541669e-02 1.41e-01 3.79e+07  -6.0 4.25e+02    -  1.72e-02 3.90e-03h  5
  43 -2.8545999e-02 1.41e-01 3.79e+07  -6.0 4.19e+02    -  1.17e-01 9.36e-04h  7
  44 -2.8548170e-02 1.40e-01 3.78e+07  -6.0 4.05e+02    -  2.58e-02 4.86e-04h  8
  45 -2.8548696e-02 1.40e-01 3.78e+07  -6.0 4.02e+02    -  2.10e-01 1.22e-04h 10
  46 -2.8710618e-02 2.33e-01 3.50e+07  -6.0 4.09e+02    -  7.48e-02 7.48e-02s 19
  47 -2.8751862e-02 2.65e-01 3.29e+07  -6.0 4.08e+02    -  6.05e-02 6.05e-02s 19
  48 -2.8666804e-02 2.72e-01 3.11e+07  -6.0 4.40e+02    -  5.32e-02 5.32e-02s 19
  49 -2.8664618e-02 2.72e-01 3.11e+07  -6.0 4.63e+02    -  5.40e-04 5.40e-04s 19
iter    objective    inf_pr   inf_du lg(mu)  ||d||  lg(rg) alpha_du alpha_pr  ls
  50 -2.8072993e-02 4.49e-01 2.68e+07  -6.0 2.77e+02    -  1.40e-01 1.40e-01s 19
  51 -2.8066876e-02 4.48e-01 2.67e+07  -6.0 2.47e+02    -  1.75e-03 1.75e-03s 19
  52 -2.8020905e-02 4.43e-01 2.64e+07  -6.0 2.47e+02    -  1.35e-02 1.35e-02s 19
  53 -2.7934437e-02 4.29e-01 2.51e+07  -6.0 2.48e+02    -  4.71e-02 4.71e-02s 19
  54r-2.7934437e-02 4.29e-01 1.00e+03  -0.8 0.00e+00    -  0.00e+00 0.00e+00R  1
  55r-2.7932750e-02 4.28e-01 1.27e+03  -0.8 1.97e+03    -  2.80e-05 3.64e-06f  1
  56r-2.6637337e-02 3.62e-01 1.51e+04  -0.8 1.27e+03    -  8.87e-06 1.59e-04f  1
  57 -2.6638157e-02 3.62e-01 1.13e+02  -6.0 1.26e+02    -  1.07e-02 1.11e-04h  1
  58 -2.6679757e-02 3.60e-01 4.06e+03  -6.0 1.76e+02    -  1.13e-04 3.97e-03h  1
  59 -2.6716026e-02 3.59e-01 3.67e+04  -6.0 2.14e+02    -  1.21e-02 4.33e-03h  1
iter    objective    inf_pr   inf_du lg(mu)  ||d||  lg(rg) alpha_du alpha_pr  ls
  60 -2.6718187e-02 3.59e-01 6.32e+04  -6.0 2.05e+02    -  7.48e-03 2.66e-04h  1
  61 -2.6759404e-02 3.57e-01 1.19e+06  -6.0 2.86e+02    -  4.95e-02 3.93e-03h  1
  62r-2.6759404e-02 3.57e-01 1.00e+03  -0.8 0.00e+00    -  0.00e+00 3.73e-07R  5
  63r-2.6758697e-02 3.57e-01 1.00e+03  -0.8 2.14e+03    -  2.25e-05 4.86e-07f  1
  64 -2.6759028e-02 3.57e-01 1.32e+04  -6.0 1.78e+02    -  2.32e-02 3.07e-05h  1
  65 -2.6760006e-02 3.57e-01 2.08e+04  -6.0 4.18e+02    -  3.52e-05 5.55e-05h  1
  66 -2.6760455e-02 3.57e-01 7.39e+05  -6.0 7.98e+02    -  3.94e-03 2.16e-05h  1
  67 -2.6789196e-02 3.56e-01 6.69e+05  -6.0 2.84e+02    -  2.92e-05 2.79e-03h  1
  68 -2.6824398e-02 3.50e-01 8.94e+04  -6.0 3.09e+02    -  2.99e-03 1.15e-02h  1
  69 -2.6899672e-02 3.47e-01 7.40e+05  -6.0 2.84e+02    -  2.53e-02 9.09e-03h  1
iter    objective    inf_pr   inf_du lg(mu)  ||d||  lg(rg) alpha_du alpha_pr  ls
  70 -2.7174496e-02 3.14e-01 1.12e+06  -6.0 2.86e+02    -  5.38e-02 4.65e-02h  1
  71 -2.8179365e-02 2.69e-01 3.04e+06  -6.0 2.43e+02    -  4.25e-02 1.12e-01h  1
  72 -2.9157323e-02 4.72e-01 2.46e+06  -6.0 2.11e+02    -  1.05e-01 1.01e-01f  1
  73 -3.0359152e-02 1.10e+00 4.65e+06  -6.0 1.98e+02    -  2.08e-01 1.35e-01h  1
  74 -3.1333275e-02 1.64e+00 2.58e+07  -6.0 2.68e+02    -  2.90e-01 1.01e-01h  1
  75 -3.3610112e-02 4.38e+00 1.22e+07  -6.0 4.78e+02    -  2.53e-03 2.14e-01f  1
  76 -3.5210992e-02 4.53e+00 2.13e+07  -6.0 5.26e+02    -  5.37e-05 1.65e-01h  1
  77 -3.6080532e-02 4.23e+00 3.07e+07  -6.0 4.54e+02    -  1.50e-03 8.07e-02h  1
  78 -3.7787231e-02 3.70e+00 3.28e+07  -6.0 3.86e+02    -  1.15e-01 1.67e-01f  1
  79 -3.7821880e-02 3.69e+00 2.86e+07  -6.0 5.70e+02    -  1.92e-02 2.51e-03h  1
iter    objective    inf_pr   inf_du lg(mu)  ||d||  lg(rg) alpha_du alpha_pr  ls
  80 -3.8005558e-02 3.64e+00 3.01e+07  -6.0 5.71e+02    -  5.37e-03 1.32e-02h  1
  81 -3.8412380e-02 3.54e+00 1.91e+07  -6.0 5.47e+02    -  7.14e-02 2.94e-02h  1
  82 -3.9067758e-02 3.31e+00 1.63e+07  -6.0 4.06e+02    -  8.35e-02 7.56e-02h  1
  83 -3.9111950e-02 3.30e+00 7.53e+07  -6.0 4.91e+02    -  3.19e-01 2.79e-03h  1
  84 -4.0854444e-02 2.98e+00 5.62e+07  -6.0 5.34e+02    -  1.91e-02 9.59e-02h  1
  85 -4.0854819e-02 2.98e+00 5.66e+07  -6.0 4.77e+02    -  1.77e-03 4.03e-05h  1
  86 -4.3024685e-02 2.33e+00 7.87e+06  -6.0 4.77e+02    -  2.49e-03 2.34e-01f  1
  87r-4.3024685e-02 2.33e+00 1.00e+03  -0.1 0.00e+00  -2.3 0.00e+00 1.50e-07R  2
  88r-4.2923124e-02 2.32e+00 1.00e+03  -0.1 6.32e+04    -  5.94e-06 3.27e-06f  1
  89 -4.2925797e-02 2.31e+00 6.61e+02  -6.0 3.68e+01    -  2.31e-06 1.53e-03h  1
iter    objective    inf_pr   inf_du lg(mu)  ||d||  lg(rg) alpha_du alpha_pr  ls
  90 -4.2952244e-02 2.28e+00 6.49e+02  -6.0 3.50e+01    -  2.57e-04 1.38e-02h  1
  91 -4.2955213e-02 2.28e+00 6.48e+02  -6.0 4.73e+01    -  4.62e-03 1.34e-03h  1
  92 -4.2969367e-02 2.26e+00 6.44e+02  -6.0 4.66e+01    -  5.20e-03 6.38e-03h  1
  93 -4.2969456e-02 2.26e+00 6.33e+07  -6.0 2.35e+02    -  9.07e-02 1.09e-05h  1
  94 -4.3042375e-02 2.24e+00 7.97e+07  -6.0 2.12e+02    -  3.71e-02 9.77e-03h  1
  95 -4.3329607e-02 2.15e+00 2.37e+08  -6.0 2.25e+02    -  3.04e-01 4.21e-02h  1
  96 -4.3604574e-02 2.04e+00 2.75e+08  -6.0 2.51e+02    -  2.17e-01 4.83e-02h  1
  97 -4.3673127e-02 2.02e+00 2.93e+08  -6.0 2.51e+02    -  2.22e-01 1.31e-02h  1
  98 -4.4302363e-02 1.78e+00 2.62e+08  -6.0 2.60e+02    -  2.01e-01 1.16e-01h  1
  99 -4.5575753e-02 1.31e+00 1.84e+08  -6.0 2.65e+02    -  3.31e-01 2.72e-01h  1
iter    objective    inf_pr   inf_du lg(mu)  ||d||  lg(rg) alpha_du alpha_pr  ls
 100 -4.7162345e-02 7.60e-01 1.41e+08  -6.0 1.58e+02    -  1.25e-04 4.59e-01h  1
 101 -4.7151999e-02 7.11e-01 1.69e+08  -6.0 3.97e+02    -  1.16e-02 6.16e-02H  1
 102 -4.7378532e-02 5.94e-01 2.11e+08  -6.0 3.68e+02    -  3.01e-03 1.82e-01h  2
 103 -4.7597263e-02 4.87e-01 2.86e+08  -6.0 2.29e+02    -  3.69e-04 1.68e-01h  1
 104r-4.7597263e-02 4.87e-01 1.00e+03  -0.7 0.00e+00  -2.7 0.00e+00 6.71e-08R  2
 105r-4.7655628e-02 4.82e-01 1.73e+03  -0.7 7.65e+03    -  6.46e-07 1.03e-05f  1
 106 -4.7705014e-02 3.95e-01 1.83e+07  -6.0 1.09e+01    -  9.21e-03 1.82e-01h  1
 107 -4.7710101e-02 3.86e-01 1.87e+07  -6.0 9.26e+00    -  1.82e-01 2.27e-02h  1
 108 -4.7774069e-02 2.72e-01 1.32e+07  -6.0 9.32e+00    -  8.42e-02 2.95e-01h  1
 109 -4.7817914e-02 2.00e-01 9.73e+06  -6.0 7.34e+00    -  3.40e-01 2.63e-01h  1
iter    objective    inf_pr   inf_du lg(mu)  ||d||  lg(rg) alpha_du alpha_pr  ls
 110 -4.7911875e-02 6.55e-02 3.18e+06  -6.0 6.02e+00    -  4.58e-01 6.73e-01h  1
 111 -4.7970681e-02 4.53e-04 3.07e+03  -6.0 2.11e+00    -  9.13e-01 9.99e-01h  1
 112 -4.8113226e-02 2.61e-04 1.29e+01  -6.0 1.43e+00    -  9.04e-01 1.00e+00f  1
 113 -5.0307297e-02 6.92e-02 3.93e+01  -6.0 2.20e+01    -  3.94e-01 1.00e+00h  1
 114 -5.3257838e-02 1.60e-02 5.24e+01  -6.0 3.70e+01    -  1.68e-01 9.67e-01H  1
 115 -5.3805839e-02 1.04e-02 1.12e+02  -6.0 4.12e+01    -  4.39e-01 2.23e-01f  1
 116 -5.8022030e-02 3.60e-01 7.93e+01  -6.0 5.88e+01    -  2.69e-02 7.62e-01f  1
 117 -6.0669317e-02 2.18e-01 6.66e+01  -6.0 6.34e+01    -  4.82e-01 3.75e-01h  1
 118 -6.4122091e-02 1.32e-01 3.94e+01  -6.0 1.09e+02    -  2.59e-01 4.93e-01h  1
 119 -6.6643386e-02 3.50e-01 5.93e+01  -6.0 1.40e+02    -  4.87e-01 5.54e-01h  1
iter    objective    inf_pr   inf_du lg(mu)  ||d||  lg(rg) alpha_du alpha_pr  ls
 120 -6.9168726e-02 4.79e-01 1.85e+01  -6.0 2.66e+02    -  4.18e-01 3.74e-01h  1
 121 -6.9157392e-02 4.58e-01 3.98e+03  -6.0 1.82e+00  -3.2 1.04e-02 4.41e-02h  1
 122 -7.0270970e-02 5.18e-01 3.55e+03  -6.0 4.04e+02    -  3.91e-03 9.90e-02h  1
 123 -7.1815664e-02 1.05e+00 2.71e+03  -6.0 4.30e+02    -  1.20e-03 2.30e-01h  1
 124 -7.2634802e-02 1.12e+00 2.44e+03  -6.0 4.13e+02    -  6.92e-01 1.07e-01h  1
 125 -7.5996664e-02 2.61e+00 2.05e+03  -6.0 1.89e+03    -  8.77e-02 1.58e-01h  1
Error in an AMPL evaluation. Run with "halt_on_ampl_error yes" to see details.
Warning: Cutting back alpha due to evaluation error
 126 -7.6879682e-02 2.55e+00 1.98e+03  -6.0 1.73e+03    -  2.04e-01 3.96e-02h  2
Error in an AMPL evaluation. Run with "halt_on_ampl_error yes" to see details.
Warning: Cutting back alpha due to evaluation error
 127 -7.8625453e-02 2.44e+00 1.85e+03  -6.0 2.22e+03    -  1.14e-01 6.63e-02h  2
Error in an AMPL evaluation. Run with "halt_on_ampl_error yes" to see details.
Warning: Cutting back alpha due to evaluation error
 128 -7.9629386e-02 2.28e+00 1.83e+03  -6.0 2.87e+04    -  1.48e-02 9.09e-03h  2
 129 -7.9646248e-02 2.14e+00 1.72e+03  -6.0 9.52e-01  -3.7 5.01e-02 6.07e-02h  1
iter    objective    inf_pr   inf_du lg(mu)  ||d||  lg(rg) alpha_du alpha_pr  ls
 130 -7.9875934e-02 1.97e-02 8.22e+01  -6.0 9.34e-01  -4.2 7.91e-02 1.00e+00h  1
 131 -7.9966184e-02 5.17e-03 8.93e+00  -6.0 8.64e-01  -4.7 6.68e-01 1.00e+00h  1
 132 -7.9974438e-02 8.29e-04 6.18e+00  -6.0 4.38e-01  -4.2 3.74e-01 1.00e+00h  1
 133 -7.9969275e-02 1.08e-03 3.87e+00  -6.0 2.32e-01  -3.8 6.85e-01 1.00e+00H  1
 134 -7.9984125e-02 1.01e-03 2.02e+01  -6.0 3.74e-01  -4.3 1.00e+00 5.03e-01h  1
 135 -8.0069098e-02 2.34e-03 1.40e+01  -6.0 8.06e-01  -4.8 2.15e-01 6.72e-01f  1
 136 -8.0387153e-02 2.75e-02 6.52e-01  -6.0 2.40e+00  -5.2 1.00e+00 1.00e+00f  1
 137 -8.0853241e-02 2.41e-02 2.28e+01  -6.0 6.24e+00  -5.7 7.76e-01 4.82e-01h  1
 138 -8.1020244e-02 2.22e-02 2.93e+04  -6.0 1.10e+01  -6.2 1.00e+00 2.03e-01f  1
 139 -8.1520964e-02 7.12e-02 2.20e+04  -6.0 2.20e+01  -6.7 2.63e-01 2.56e-01h  1
iter    objective    inf_pr   inf_du lg(mu)  ||d||  lg(rg) alpha_du alpha_pr  ls
 140 -8.1703869e-02 7.35e-02 2.91e+03  -6.0 6.02e+01  -7.1 1.12e-01 6.91e-02h  1
 141 -8.2285329e-02 7.69e-02 2.82e+03  -6.0 1.39e+02  -7.6 5.78e-01 1.19e-01h  1
 142 -8.3190985e-02 2.42e-01 2.42e+03  -6.0 5.89e+02  -8.1 3.31e-01 7.04e-02h  1
 143 -8.7412432e-02 9.34e+00 7.07e+02  -6.0 2.05e+02  -7.7 9.80e-01 7.13e-01h  1
 144 -8.9744996e-02 1.11e+01 6.96e+02  -6.0 6.72e+03  -8.1 4.74e-03 1.74e-02h  1
 145 -9.2447124e-02 9.31e+00 4.94e+02  -6.0 3.96e+02  -7.7 4.45e-01 2.68e-01h  1
 146 -9.4165111e-02 9.40e+00 4.72e+02  -6.0 2.51e+03  -8.2 1.29e-01 3.83e-02h  1
 147 -9.6940717e-02 6.92e+00 3.16e+02  -6.0 4.09e+02  -7.8 1.00e+00 2.85e-01h  1
 148 -1.0019619e-01 1.45e+01 2.51e+02  -6.0 1.29e+03  -8.2 3.11e-01 2.09e-01h  1
 149 -1.0321740e-01 1.18e+01 1.99e+02  -6.0 1.68e+03  -8.7 1.10e-02 2.05e-01h  1
iter    objective    inf_pr   inf_du lg(mu)  ||d||  lg(rg) alpha_du alpha_pr  ls
 150 -1.0531239e-01 8.62e+00 1.26e+02  -6.0 4.36e+02  -8.3 3.00e-01 3.63e-01h  1
 151 -1.0535294e-01 8.51e+00 1.25e+02  -6.0 1.55e+03  -8.8 3.74e-01 1.31e-02h  1
 152 -1.0571874e-01 8.24e+00 1.23e+02  -6.0 7.71e+03  -9.3 3.59e-02 1.69e-02h  1
 153 -1.0726766e-01 6.94e+00 9.81e+01  -6.0 7.94e+02  -8.8 2.66e-01 2.05e-01h  1
 154 -1.1107059e-01 2.73e+00 7.60e+01  -6.0 5.39e+02  -8.4 6.64e-03 7.54e-01h  1
 155 -1.1152914e-01 1.84e+00 5.34e+02  -6.0 1.94e+02  -8.0 7.70e-02 1.00e+00h  1
 156 -1.1215721e-01 1.25e+00 4.42e+02  -6.0 3.61e+02  -8.5 5.92e-01 1.70e-01h  1
 157 -1.1433020e-01 1.61e+00 2.75e+02  -6.0 5.56e+02  -8.9 2.91e-01 3.63e-01h  1
 158 -1.1459920e-01 1.49e+00 9.57e+02  -6.0 1.03e+03  -8.5 3.77e-01 6.75e-02h  1
 159 -1.1570368e-01 1.10e+00 3.24e+03  -6.0 6.37e+02  -9.0 1.00e+00 2.00e-01h  1
iter    objective    inf_pr   inf_du lg(mu)  ||d||  lg(rg) alpha_du alpha_pr  ls
 160 -1.2205192e-01 6.20e+00 9.05e+01  -6.0 1.47e+03  -9.5 2.73e-01 6.55e-01h  1
 161 -1.2332923e-01 4.80e+00 2.07e+03  -6.0 1.02e+03  -9.0 7.87e-02 2.47e-01h  1
 162 -1.2418253e-01 5.30e+00 1.86e+03  -6.0 2.46e+03  -9.5 8.39e-02 8.16e-02h  1
 163 -1.2558701e-01 4.14e+00 1.98e+03  -6.0 6.07e+02  -9.1 3.36e-01 3.71e-01h  1
 164 -1.2566420e-01 3.65e+00 2.65e+03  -6.0 1.33e+02  -7.8 3.44e-01 1.19e-01h  1
 165 -1.2577809e-01 3.25e+00 3.15e+03  -6.0 1.21e+02  -8.2 2.88e-01 1.08e-01h  1
 166 -1.2688844e-01 1.72e+00 9.85e+03  -6.0 2.79e+02  -8.7 3.27e-01 5.52e-01h  1
 167 -1.2743483e-01 1.63e+00 2.34e+04  -6.0 7.58e+02  -9.2 5.13e-02 1.10e-01h  1
 168 -1.2927779e-01 8.82e+00 7.50e+06  -6.0 1.18e+04  -9.7 3.29e-04 4.85e-02h  1
 169 -1.3054719e-01 8.83e+00 5.43e+06  -6.0 1.16e+03  -9.2 4.88e-02 2.76e-01h  1
iter    objective    inf_pr   inf_du lg(mu)  ||d||  lg(rg) alpha_du alpha_pr  ls
 170 -1.3068659e-01 8.43e+00 5.16e+06  -6.0 1.77e+03  -9.7 3.27e-01 4.91e-02h  1
 171 -1.3111200e-01 7.84e+00 4.80e+06  -6.0 3.28e+03 -10.2 4.38e-02 7.05e-02h  1
 172 -1.3150936e-01 6.64e+00 4.06e+06  -6.0 1.44e+03  -9.8 6.31e-02 1.53e-01h  1
 173 -1.3214087e-01 3.91e+00 2.39e+06  -6.0 8.68e+02  -9.3 9.76e-02 4.11e-01h  1
 174 -1.3263565e-01 3.03e+00 1.86e+06  -6.0 2.32e+03  -9.8 4.30e-01 2.24e-01h  1
 175 -1.3333298e-01 2.55e+00 1.54e+06  -6.0 5.41e+03 -10.3 1.57e-01 1.70e-01h  1
 176 -1.3357956e-01 3.71e+01 1.40e+06  -6.0 1.76e+04    -  1.02e-01 9.26e-02h  1
 177 -1.3371478e-01 3.43e+01 1.27e+06  -6.0 2.50e+03  -9.9 1.88e-01 9.43e-02h  1
 178 -1.3416565e-01 2.33e+01 8.50e+05  -6.0 2.00e+03 -10.3 1.14e-01 3.29e-01h  1
 179 -1.3451591e-01 5.60e+01 6.49e+05  -6.0 8.39e+03  -9.9 5.89e-02 2.37e-01h  1
iter    objective    inf_pr   inf_du lg(mu)  ||d||  lg(rg) alpha_du alpha_pr  ls
 180 -1.3461159e-01 5.54e+01 6.41e+05  -6.0 1.84e+03  -8.6 4.07e-02 1.11e-02h  1
 181 -1.3463658e-01 5.14e+01 5.94e+05  -6.0 1.13e+03  -9.1 1.50e-01 7.33e-02h  1
 182 -1.3471910e-01 4.42e+01 5.11e+05  -6.0 2.26e+02  -9.5 2.45e-01 1.40e-01h  1
 183 -1.3492633e-01 2.84e+01 3.28e+05  -6.0 4.19e+02 -10.0 4.49e-01 3.59e-01h  1
 184 -1.3497590e-01 2.41e+01 2.79e+05  -6.0 2.61e+02  -9.6 2.40e-01 1.50e-01h  1
 185 -1.3498897e-01 2.04e+01 2.36e+05  -6.0 1.26e+02  -8.3 2.12e-01 1.55e-01h  1
 186 -1.3481561e-01 1.67e+01 1.94e+05  -6.0 2.22e+02  -8.7 3.96e-02 1.80e-01h  1
 187 -1.3487855e-01 9.56e+00 1.11e+05  -6.0 1.31e+02  -7.4 3.67e-01 4.29e-01h  1
 188 -1.3481959e-01 1.21e+00 2.06e+03  -6.0 7.84e+01  -7.9 2.39e-01 9.85e-01h  1
 189 -1.3503511e-01 8.88e-01 1.39e+03  -6.0 3.75e+02  -8.4 2.78e-01 3.29e-01h  1
iter    objective    inf_pr   inf_du lg(mu)  ||d||  lg(rg) alpha_du alpha_pr  ls
 190 -1.3507925e-01 8.43e-01 1.31e+03  -6.0 5.31e+02  -8.8 3.40e-01 5.20e-02h  1
 191 -1.3518875e-01 5.25e-01 7.99e+02  -6.0 1.74e+02  -9.3 1.00e+00 3.93e-01h  1
 192 -1.3530071e-01 8.04e+00 3.52e+02  -6.0 1.21e+03  -9.8 2.45e-01 5.59e-01h  1
 193 -1.3531607e-01 7.69e+00 3.36e+02  -6.0 1.08e+04    -  9.40e-02 4.44e-02h  1
 194 -1.3555665e-01 8.76e+01 7.59e+02  -6.0 6.10e+03    -  8.56e-02 4.44e-01h  1
 195 -1.3556420e-01 7.90e+01 4.61e+02  -6.0 4.07e+03 -10.3 1.98e-01 1.59e-01h  1
 196 -1.3575636e-01 4.92e+01 1.83e+03  -6.0 2.72e+02  -8.9 9.05e-02 3.79e-01h  1
 197 -1.3575795e-01 4.90e+01 1.79e+03  -6.0 2.99e+02  -9.4 1.97e-02 3.58e-03h  1
 198 -1.3561527e-01 4.17e+01 2.07e+03  -6.0 5.07e+02  -9.0 1.68e-02 1.49e-01h  1
 199 -1.3567406e-01 3.65e+01 1.19e+04  -6.0 1.43e+02  -6.8 2.24e-02 1.26e-01h  1
iter    objective    inf_pr   inf_du lg(mu)  ||d||  lg(rg) alpha_du alpha_pr  ls
 200 -1.3577945e-01 1.39e+01 4.12e+03  -6.0 8.44e+00  -6.3 2.54e-01 6.19e-01h  1
 201 -1.3580637e-01 1.00e+01 2.80e+03  -6.0 8.56e+00  -6.8 7.12e-01 2.78e-01h  1
 202 -1.3598588e-01 2.25e+00 6.06e+01  -6.0 2.48e+01  -7.3 8.75e-01 1.00e+00h  1
 203 -1.3623172e-01 3.34e+00 1.01e+02  -6.0 7.76e+01  -7.8 1.00e+00 6.23e-01h  1
 204 -1.3622653e-01 3.17e+00 6.05e+02  -6.0 2.12e+02  -8.2 3.86e-02 2.34e-01h  1
 205 -1.3655776e-01 3.52e+00 5.67e+02  -6.0 7.28e+03    -  7.92e-02 6.52e-02h  1
 206 -1.3682243e-01 5.80e+00 5.13e+02  -6.0 4.74e+03    -  1.05e-01 9.61e-02h  1
 207 -1.3690247e-01 7.13e+00 4.48e+02  -6.0 3.92e+03    -  1.91e-01 1.35e-01h  1
 208 -1.3708197e-01 1.75e+01 3.82e+02  -6.0 5.20e+03    -  5.22e-01 2.01e-01h  1
 209 -1.3730377e-01 1.51e+01 1.76e+02  -6.0 1.48e+03    -  3.75e-03 5.63e-01h  1
iter    objective    inf_pr   inf_du lg(mu)  ||d||  lg(rg) alpha_du alpha_pr  ls
 210 -1.3745609e-01 7.72e+00 1.58e+02  -6.0 1.45e+02  -8.7 2.05e-01 4.89e-01h  1
 211 -1.3754253e-01 2.17e+00 3.80e+01  -6.0 1.65e+02  -9.2 7.76e-01 7.20e-01h  1
 212 -1.3756834e-01 1.22e+00 3.81e+01  -6.0 3.04e+02  -9.7 3.94e-03 9.07e-01h  1
 213 -1.3753596e-01 6.34e-01 1.14e+02  -6.0 8.10e+01  -6.5 3.49e-02 4.78e-01h  1
 214 -1.3753600e-01 2.29e-03 2.20e+01  -6.0 4.48e+00  -7.0 6.27e-01 1.00e+00h  1
 215 -1.3750942e-01 3.22e-03 1.12e+01  -6.0 1.05e+01  -7.5 9.02e-01 1.00e+00h  1
 216 -1.3747084e-01 3.28e-02 1.07e+02  -6.0 6.65e+01  -8.0 4.39e-01 1.00e+00h  1
 217 -1.3748820e-01 2.12e-01 3.85e+01  -6.0 8.54e+01  -8.5 4.46e-01 1.00e+00h  1
 218 -1.3745075e-01 1.26e+00 2.49e+01  -6.0 2.73e+02  -8.9 5.89e-01 7.49e-01h  1
 219 -1.3745084e-01 4.64e-01 2.40e+02  -6.0 2.04e+02  -9.4 2.55e-01 1.00e+00H  1
iter    objective    inf_pr   inf_du lg(mu)  ||d||  lg(rg) alpha_du alpha_pr  ls
 220 -1.3749056e-01 1.07e-01 4.02e-01  -6.0 6.09e+01  -8.1 1.00e+00 1.00e+00h  1
 221 -1.3749084e-01 4.78e-01 2.72e+00  -6.0 1.30e+02  -8.6 1.00e+00 1.00e+00h  1
 222 -1.3750081e-01 1.25e+00 1.34e+01  -6.0 5.47e+02  -9.0 5.88e-01 3.34e-01h  1
 223 -1.3751843e-01 1.03e+00 1.06e+01  -6.0 2.02e+02  -9.5 1.00e+00 1.00e+00h  1
 224 -1.3754987e-01 1.22e+00 2.08e+02  -6.0 6.22e+02 -10.0 2.49e-01 2.10e-01h  1
 225 -1.3760417e-01 2.04e+00 4.06e+03  -6.0 3.78e+02  -9.6 2.49e-01 9.79e-01h  1
 226 -1.3759768e-01 3.81e+00 2.53e+05  -6.0 7.77e+02 -10.0 1.66e-02 1.00e+00H  1
 227 -1.3768251e-01 1.91e+01 1.52e+02  -6.0 1.10e+03    -  8.18e-01 1.00e+00h  1
 228 -1.3770556e-01 4.16e+01 1.19e+02  -6.0 3.40e+03    -  1.74e-02 3.94e-01h  1
 229 -1.3774507e-01 3.32e+01 9.67e+01  -6.0 9.45e+02    -  8.14e-02 2.20e-01h  1
iter    objective    inf_pr   inf_du lg(mu)  ||d||  lg(rg) alpha_du alpha_pr  ls
 230 -1.3770042e-01 1.48e-01 5.46e+01  -6.0 6.98e+01  -7.8 4.43e-01 1.00e+00h  1
 231 -1.3768042e-01 2.48e-02 1.94e-01  -6.0 2.84e+01  -8.3 1.00e+00 1.00e+00h  1
 232 -1.3762321e-01 1.96e-01 1.59e+00  -6.0 7.96e+01  -8.8 1.00e+00 1.00e+00h  1
 233 -1.3757781e-01 2.54e-01 1.40e+00  -6.0 1.01e+02  -9.2 1.00e+00 1.00e+00h  1
 234 -1.3755724e-01 1.68e+00 3.27e+00  -6.0 3.09e+02  -9.7 1.00e+00 1.00e+00h  1
 235 -1.3763223e-01 4.56e+00 1.05e+02  -6.0 5.31e+02 -10.2 4.62e-01 1.00e+00h  1
 236 -1.3785203e-01 1.69e+01 2.63e+01  -6.0 1.37e+03 -10.7 6.18e-01 1.00e+00H  1
 237 -1.3806563e-01 1.20e+01 8.83e+02  -6.0 1.79e+03    -  4.46e-01 1.00e+00H  1
 238 -1.3793959e-01 2.16e+00 6.81e+02  -6.0 1.88e+02  -9.3 6.47e-01 1.00e+00h  1
 239 -1.3794821e-01 1.13e+00 2.22e+02  -6.0 9.46e+01  -8.9 8.75e-01 1.00e+00h  1
iter    objective    inf_pr   inf_du lg(mu)  ||d||  lg(rg) alpha_du alpha_pr  ls
 240 -1.3794730e-01 1.06e+00 4.26e+02  -6.0 1.55e+02  -9.4 1.00e+00 5.89e-02h  1
 241 -1.3796718e-01 2.18e+00 7.78e+01  -6.0 3.50e+02  -9.9 1.00e+00 1.00e+00f  1
 242 -1.3801416e-01 9.70e-01 3.81e+00  -6.0 2.50e+02    -  1.00e+00 1.00e+00h  1
 243 -1.3801259e-01 1.59e-02 3.69e-02  -6.0 3.00e+01    -  1.00e+00 1.00e+00h  1
 244 -1.3801255e-01 3.60e-04 2.07e-04  -6.0 4.44e+00    -  1.00e+00 1.00e+00h  1
 245 -1.3801255e-01 1.92e-10 2.86e-10  -6.0 2.28e-03    -  1.00e+00 1.00e+00h  1
 246 -1.3855156e-01 6.50e+00 1.16e+01  -7.5 3.73e+03    -  1.71e-01 1.73e-01f  1
 247 -1.3874254e-01 7.36e+00 2.56e+01  -7.5 4.03e+03    -  3.42e-02 7.08e-02h  1
 248 -1.3912806e-01 1.01e+01 2.12e+01  -7.5 2.55e+03    -  3.45e-01 2.32e-01h  1
 249 -1.3929692e-01 1.07e+01 1.86e+01  -7.5 2.43e+03    -  1.61e-01 1.81e-01h  1
iter    objective    inf_pr   inf_du lg(mu)  ||d||  lg(rg) alpha_du alpha_pr  ls
 250 -1.3930274e-01 1.06e+01 1.13e+02  -7.5 3.46e+02  -9.4 5.05e-01 9.61e-03h  1
 251 -1.3980141e-01 3.15e+01 4.39e+01  -7.5 2.56e+03    -  7.67e-03 6.09e-01h  1
 252 -1.3983564e-01 2.58e+01 3.44e+01  -7.5 1.16e+03    -  2.13e-01 1.83e-01h  1
 253 -1.3992110e-01 1.29e+01 4.81e+01  -7.5 1.11e+03    -  2.72e-01 5.05e-01h  1
 254 -1.3992962e-01 1.20e+01 2.43e+01  -7.5 1.06e+02  -8.1 5.46e-01 7.36e-02h  1
 255 -1.3995922e-01 9.87e+00 2.61e+01  -7.5 9.61e+02    -  3.35e-01 1.79e-01h  1
 256 -1.4001185e-01 5.46e+00 8.95e+00  -7.5 2.19e+01  -8.6 1.27e-01 4.47e-01h  1
 257 -1.4002122e-01 4.97e+00 1.11e+02  -7.5 3.95e+01  -9.1 1.00e+00 8.93e-02h  1
 258 -1.4005966e-01 4.47e+01 8.60e+01  -7.5 8.27e+03    -  6.99e-03 1.86e-01h  1
 259 -1.4010864e-01 5.19e+01 2.34e+01  -7.5 2.86e+03    -  1.03e-02 3.87e-01h  1
iter    objective    inf_pr   inf_du lg(mu)  ||d||  lg(rg) alpha_du alpha_pr  ls
 260 -1.4018108e-01 1.34e+01 8.42e+02  -7.5 6.72e+02    -  2.14e-03 8.45e-01h  1
 261 -1.4027650e-01 4.59e+00 2.20e+02  -7.5 4.63e+02    -  6.81e-01 9.32e-01h  1
 262 -1.4031056e-01 3.47e+00 3.77e+02  -7.5 3.94e+02    -  1.94e-01 3.06e-01h  1
 263 -1.4031593e-01 3.31e+00 1.15e+03  -7.5 3.51e+02    -  5.58e-01 4.70e-02h  1
 264 -1.4036974e-01 2.25e+00 8.57e+02  -7.5 8.54e+02    -  6.30e-01 4.66e-01h  1
 265 -1.4039764e-01 2.09e+00 7.38e+01  -7.5 9.55e+02    -  6.89e-02 2.23e-01h  1
 266 -1.4041970e-01 1.84e+00 1.75e+03  -7.5 9.60e+02    -  4.35e-01 1.65e-01h  1
 267 -1.4045541e-01 8.26e+00 2.16e+03  -7.5 3.19e+03    -  4.38e-01 2.33e-01h  1
 268 -1.4045646e-01 8.23e+00 4.18e+03  -7.5 1.06e+04    -  2.29e-02 5.87e-03h  1
 269 -1.4049133e-01 3.88e+01 4.20e+03  -7.5 1.75e+03    -  3.82e-01 1.00e+00h  1
iter    objective    inf_pr   inf_du lg(mu)  ||d||  lg(rg) alpha_du alpha_pr  ls
 270 -1.4050009e-01 3.52e+01 4.02e+03  -7.5 2.76e+03    -  4.24e-01 1.73e-01h  1
 271 -1.4051840e-01 3.46e+01 3.16e+03  -7.5 3.24e+03    -  2.79e-01 2.18e-01h  1
 272 -1.4054961e-01 6.68e+01 3.34e+02  -7.5 2.85e+03    -  3.65e-02 6.94e-01h  1
 273 -1.4054648e-01 6.04e+01 3.64e+02  -7.5 1.54e+03    -  4.37e-02 1.00e-01h  1
 274 -1.4057028e-01 5.73e+01 1.15e+03  -7.5 2.05e+03    -  4.66e-02 8.45e-01h  1
 275 -1.4059406e-01 5.45e+01 8.23e+02  -7.5 1.77e+03    -  3.80e-01 1.00e+00h  1
 276 -1.4060417e-01 2.80e+01 7.99e+02  -7.5 1.13e+03    -  3.53e-02 7.34e-01h  1
 277 -1.4059982e-01 1.37e+01 6.11e+02  -7.5 5.69e+02    -  2.39e-01 5.75e-01h  1
 278 -1.4059866e-01 1.21e+01 2.44e+02  -7.5 7.14e+02    -  5.99e-01 1.23e-01h  1
 279 -1.4060128e-01 1.75e+00 2.35e+02  -7.5 2.13e+02    -  3.23e-02 1.00e+00h  1
iter    objective    inf_pr   inf_du lg(mu)  ||d||  lg(rg) alpha_du alpha_pr  ls
 280 -1.4060124e-01 5.53e-05 9.24e+01  -7.5 2.65e+00    -  6.07e-01 1.00e+00h  1
 281 -1.4060141e-01 2.93e-03 1.05e-02  -7.5 1.26e+01  -9.5 1.00e+00 1.00e+00h  1
 282 -1.4061808e-01 3.02e+01 1.21e+02  -7.5 4.67e+03    -  1.07e-01 2.74e-01h  1
 283 -1.4060522e-01 1.81e+01 5.76e+01  -7.5 9.79e+02    -  2.79e-01 1.00e+00h  1
 284 -1.4061042e-01 3.22e+00 8.85e+00  -7.5 3.95e+02    -  1.00e+00 1.00e+00h  1
 285 -1.4061935e-01 1.15e+01 4.62e+01  -7.5 3.22e+03    -  1.64e-01 2.12e-01h  1
 286 -1.4061944e-01 4.40e-03 2.54e+00  -7.5 1.03e+01    -  1.00e+00 1.00e+00h  1
 287 -1.4062001e-01 4.10e-02 1.72e-01  -7.5 4.53e+01    -  1.00e+00 1.00e+00h  1
 288 -1.4062001e-01 1.30e-07 2.77e-05  -7.5 1.22e-01    -  1.00e+00 1.00e+00h  1
 289 -1.4062001e-01 6.17e-07 4.09e-06  -7.5 1.75e-01    -  1.00e+00 1.00e+00h  1
iter    objective    inf_pr   inf_du lg(mu)  ||d||  lg(rg) alpha_du alpha_pr  ls
 290 -1.4062001e-01 2.68e-10 1.47e-12  -7.5 2.84e-06    -  1.00e+00 1.00e+00h  1
 291 -1.4062327e-01 9.23e-02 2.40e+00  -9.0 2.59e+02    -  2.88e-01 3.04e-01h  1
 292 -1.4063017e-01 2.10e+01 7.95e+01  -9.0 1.17e+05    -  2.17e-02 8.78e-03h  1
 293 -1.4063789e-01 2.77e+01 1.19e+02  -9.0 3.62e+03    -  1.86e-01 2.32e-01h  1
 294 -1.4064253e-01 2.74e+01 1.26e+02  -9.0 4.34e+03    -  2.91e-01 1.62e-01h  1
 295 -1.4064965e-01 4.42e+01 1.33e+02  -9.0 3.43e+03    -  3.20e-01 3.66e-01h  1
 296 -1.4065355e-01 4.07e+01 2.54e+01  -9.0 1.55e+03    -  1.00e-02 8.19e-01h  1
 297 -1.4065068e-01 1.55e-01 7.70e+00  -9.0 1.02e+02    -  4.01e-02 1.00e+00h  1
 298 -1.4065130e-01 8.47e-02 7.37e-01  -9.0 6.42e+01    -  1.00e+00 1.00e+00h  1
 299 -1.4065129e-01 2.12e-02 8.98e-02  -9.0 3.22e+01    -  1.00e+00 1.00e+00h  1
iter    objective    inf_pr   inf_du lg(mu)  ||d||  lg(rg) alpha_du alpha_pr  ls
 300 -1.4065129e-01 6.75e-08 1.75e-05  -9.0 3.78e-02    -  1.00e+00 1.00e+00h  1
 301 -1.4065129e-01 2.77e-10 2.60e-12  -9.0 2.81e-05    -  1.00e+00 1.00e+00h  1

Number of Iterations....: 301

                                   (scaled)                 (unscaled)
Objective...............:  -1.4065128916502759e-01   -1.4065128916502759e-01
Dual infeasibility......:   2.5972959744849540e-12    2.5972959744849540e-12
Constraint violation....:   2.7673319571205196e-10    2.7673319571205196e-10
Complementarity.........:   9.0909098742513562e-10    9.0909098742513562e-10
Overall NLP error.......:   9.0909098742513562e-10    9.0909098742513562e-10


Number of objective function evaluations             = 409
Number of objective gradient evaluations             = 301
Number of equality constraint evaluations            = 412
Number of inequality constraint evaluations          = 410
Number of equality constraint Jacobian evaluations   = 310
Number of inequality constraint Jacobian evaluations = 310
Number of Lagrangian Hessian evaluations             = 301
Total CPU secs in IPOPT (w/o function evaluations)   =    144.292
Total CPU secs in NLP function evaluations           =      4.886

EXIT: Optimal Solution Found.
